TOUR_SECTION
1
135
5
91
189
110
20
95
126
35
169
175
37
184
86
201
47
4
199
133
84
69
32
105
53
61
77
88
146
42
64
174
16
14
148
144
96
6
156
44
134
120
113
109
40
70
122
131
181
68
197
81
158
102
140
15
150
103
51
75
178
200
66
183
159
139
39
147
195
142
193
83
45
38
107
154
185
54
194
87
165
145
129
73
141
7
127
104
10
192
79
78
82
62
187
121
80
50
3
130
92
149
41
106
43
101
52
119
117
176
63
115
177
28
152
76
180
166
128
30
172
190
124
60
21
100
19
24
71
58
25
188
93
22
125
49
27
72
164
97
29
12
57
85
162
31
13
196
136
163
116
99
67
23
173
90
74
168
153
112
123
186
108
111
26
11
198
132
9
143
89
46
167
118
155
182
114
179
48
2
171
170
36
94
161
157
160
59
33
65
151
137
55
8
191
138
34
98
17
56
18
-1
EOF